time,avg_hydro,avg_temp,avg_vonmises,contact,l_its,max_hydro,max_vonmises,min_hydro,min_vonmises,nl_its,stress_xx_recovered,stress_yy_recovered,total_l_its,total_nl_its
0,0,0,0,0,0,0,0,0,0,0,0,0,0,0
0.1,1.1564823173179e-10,337.21658087396,3.4316052092472e-10,0,2,9.251858538543e-10,9.264750694657e-10,-1.8858064038792e-26,1.3867519372958e-10,2,2.0635338543593e-10,4.8149123268384e-10,2,2
0.2,2.6984587404084e-10,337.83040756335,9.1043107032552e-10,0,2,1.8503717077086e-09,1.9917524565418e-09,-9.251858538543e-10,9.0825029226537e-11,2,1.8813366295278e-09,1.2116263282098e-09,4,4
0.3,-8801.2588660484,338.56251570987,15519.152519032,5,6,-5935.7282421102,19774.401542644,-10719.208073565,11404.823363387,6,-15890.669332188,4040.6781557011,10,10
0.4,-44037.406396696,338.53498140179,77347.819674143,5,11,-29680.418122363,98571.261567952,-53782.95458857,57106.958040572,10,-79947.219865172,18975.384143832,21,20
