time,e_xtalpl_xx,e_xtalpl_yy,eth_zz,f_xx,f_yy,f_zz,fp_xx,fp_yy,fp_zz,fth_xx,fth_yy,fth_zz,stress_zz,temperature
1,0.0013532080739647,0.0013532080739647,0.00095408052752932,1.0013522937248,1.0013522937248,1,0.9999993472239,0.9999993472239,1.0000002591029,1.0009536258264,1.0009536258264,1.0009536258264,-63.411350594868,700
