time,avg_hydro,avg_temp,avg_vonmises,max_hydro,max_vonmises,min_hydro,min_temperature,min_vonmises,stress_xx_recovered,stress_yy_recovered
0,0,0,0,0,0,0,0,0,0,0
0.1,1.1564823173179e-10,300.11803356918,3.4316052092472e-10,9.251858538543e-10,9.264750694657e-10,-1.8858064038792e-26,399.92755917552,1.3867519372958e-10,2.0635338543593e-10,4.8149123268384e-10
0.2,2.6984587404084e-10,300.29086591063,9.1043107032552e-10,1.8503717077086e-09,1.9917524565418e-09,-9.251858538543e-10,399.82355695813,9.0825029226537e-11,1.8813366295278e-09,1.2116263282098e-09
0.3,-8801.2588660484,302.77933801464,15519.152519032,-5935.7282421093,19774.401542644,-10719.208073565,398.29560865922,11404.823363388,-15890.669332187,4040.6781557014
0.4,-44037.406397656,338.48434393478,77347.819673971,-29680.418123534,98571.261574526,-53782.954596606,377.48785697153,57106.958039203,-79947.219868804,18975.384139335
0.5,-48037.638443,338.35911854507,84111.749489508,-34975.681685313,103226.49457877,-58105.695870694,377.68227635938,62842.76927168,-89518.506370561,17705.773157687
